n = 9;
k = 4;
maxsize = 9;
nML = 2;
nCL = 2;
deg = [4, 3, 1, 3, 1, 2, 4, 3, 3];
ML = array2d(1..2, 1..2, [1, 3, 7, 4]);
CL = array2d(1..2, 1..2, [9, 6, 8, 5]);
A = array2d(1..9, 1..9, [ 0, 1, 0, 0, 0, 0, 1, 1, 1, 1, 0, 0, 1, 0, 0, 1, 0, 0, 0, 0, 0, 0, 0, 0, 0, 0, 1, 0, 1, 0, 0, 0, 1, 0, 1, 0, 0, 0, 0, 0, 0, 0, 0, 1, 0, 0, 0, 0, 1, 0, 0, 1, 0, 0, 1, 1, 0, 0, 0, 1, 0, 0, 1, 1, 0, 0, 1, 1, 0, 0, 0, 0, 1, 0, 1, 0, 0, 0, 1, 0, 0 ]);
W = array2d(1..9, 1..9, [ -3, -6, 7, -7, 4, 6, -6, -9, 3, -4, -7, 5, 1, -6, -2, -7, -6, -1, -2, -5, -1, -5, -7, 6, -4, 2, -2, 5, -10, -10, 9, -6, 10, -4, -10, -7, -1, -4, 4, 1, -2, 0, -5, 10, -7, 8, -2, 5, 6, -2, -4, 9, 3, 9, -6, 9, 3, -4, 5, -10, 5, 4, -1, 1, 3, -3, 4, 0, 4, -7, 3, -3, -7, 2, 8, 10, 0, -5, 2, -9, -8 ]);